
******************************************************************************
This program contains Ipopt, a library for large-scale nonlinear optimization.
 Ipopt is released as open source code under the Eclipse Public License (EPL).
         For more information visit http://projects.coin-or.org/Ipopt
******************************************************************************

This is Ipopt version 3.12.6, running with linear solver ma57.

Number of nonzeros in equality constraint Jacobian...:        0
Number of nonzeros in inequality constraint Jacobian.:        9
Number of nonzeros in Lagrangian Hessian.............:        2

Total number of variables............................:        3
                     variables with only lower bounds:        0
                variables with lower and upper bounds:        0
                     variables with only upper bounds:        0
Total number of equality constraints.................:        0
Total number of inequality constraints...............:        3
        inequality constraints with only lower bounds:        0
   inequality constraints with lower and upper bounds:        0
        inequality constraints with only upper bounds:        3

iter    objective    inf_pr   inf_du lg(mu)  ||d||  lg(rg) alpha_du alpha_pr  ls
   0  0.0000000e+00 2.10e+04 9.84e-01  -1.0 0.00e+00    -  0.00e+00 0.00e+00   0
   1  1.0720915e-01 6.91e+02 1.13e-01  -1.0 1.21e-01    -  1.00e+00 1.00e+00h  1
   2  6.2722000e-02 0.00e+00 3.30e-03  -1.7 7.42e-01    -  1.00e+00 1.00e+00h  1
   3  6.7533261e-04 0.00e+00 3.88e-04  -3.8 8.28e-01    -  1.00e+00 1.00e+00h  1
   4  4.5909120e-04 0.00e+00 2.67e-05  -3.8 1.67e-02    -  1.00e+00 1.00e+00h  1
   5  5.5377650e-06 0.00e+00 1.45e-07  -5.7 7.21e-03    -  1.00e+00 1.00e+00h  1
   6 -2.4797999e-09 0.00e+00 1.61e-10  -8.6 8.49e-05    -  1.00e+00 1.00e+00h  1

Number of Iterations....: 6

                                   (scaled)                 (unscaled)
Objective...............:  -2.4797999164655798e-09   -2.4797999164655798e-09
Dual infeasibility......:   1.6129275692833289e-10    1.6129275692833289e-10
Constraint violation....:   0.0000000000000000e+00    0.0000000000000000e+00
Complementarity.........:   2.5775054565032951e-09    2.5775054565032951e-09
Overall NLP error.......:   2.5775054565032951e-09    2.5775054565032951e-09


Number of objective function evaluations             = 7
Number of objective gradient evaluations             = 7
Number of equality constraint evaluations            = 0
Number of inequality constraint evaluations          = 7
Number of equality constraint Jacobian evaluations   = 0
Number of inequality constraint Jacobian evaluations = 7
Number of Lagrangian Hessian evaluations             = 6
Total CPU secs in IPOPT (w/o function evaluations)   =      0.000
Total CPU secs in NLP function evaluations           =      0.000

EXIT: Optimal Solution Found.

************************ CUTEst statistics ************************


 Package used            :  IPOPT
 Problem                 :  POLAK4    
 # variables             =               3
 # constraints           =               3
 # objective functions   =        0.1500000E+02
 # objective gradients   =        0.8000000E+01
 # objective Hessians    =        0.7000000E+01
 # Hessian-vector prdct  =        0.0000000E+00
 # constraints functions =        0.1600000E+02
 # constraints gradients =        0.9000000E+01
 # constraints Hessians  =        0.7000000E+01
 Exit code               =               0
 Final f                 =  -0.2479800E-08
 Set up time             =            0.00 seconds
 Solve time              =            0.01 seconds


******************************************************************

System Time =       0.0030000000 s.
